NAME: ulysses22.tsp
TYPE: TSP
COMMENT: Odyssey of Ulysses (Groetschel/Padberg)
DIMENSION: 6
EDGE_WEIGHT_TYPE: GEO
DISPLAY_DATA_TYPE: COORD_DISPLAY
NODE_COORD_SECTION
1 10 0
2 60 0
3 35 40
4 16 20
5 45 25
6 30 10